\ This file has been generated by DOcplex
\ ENCODING=ISO-8859-1
\Problem name: Qrandom1742_6.lp

Minimize
 obj: - 6332 x0 - 3166 x1 - 1583 x2 - 6332 x3 - 3166 x4 - 1583 x5 + [ 3680 x0^2
      + 3680 x0*x1 + 1840 x0*x2 + 7232 x0*x3 + 3616 x0*x4 + 1808 x0*x5
      + 920 x1^2 + 920 x1*x2 + 3616 x1*x3 + 1808 x1*x4 + 904 x1*x5 + 230 x2^2
      + 1808 x2*x3 + 904 x2*x4 + 452 x2*x5 + 3616 x3^2 + 3616 x3*x4 + 1808 x3*x5
      + 904 x4^2 + 904 x4*x5 + 226 x5^2 ]/2 + 5537
Subject To

Bounds
 0 <= x0 <= 1
 0 <= x1 <= 1
 0 <= x2 <= 1
 0 <= x3 <= 1
 0 <= x4 <= 1
 0 <= x5 <= 1

Binaries
 x0 x1 x2 x3 x4 x5
End
